c Random CNF formula
p cnf 50 50
-10 -30 -50 0
-33 8 -35 0
-43 -42 14 0
-14 -12 10 0
14 26 30 0
-11 -42 -41 0
-50 37 11 0
16 -29 41 0
-49 4 39 0
46 19 -45 0
24 31 26 0
-42 28 17 0
28 50 -33 0
4 -44 38 0
46 45 8 0
-20 34 40 0
-23 -22 -30 0
34 -8 47 0
7 26 44 0
31 -35 3 0
49 -4 -13 0
-14 -42 6 0
-26 -3 35 0
34 -13 -39 0
14 27 5 0
-26 -17 -46 0
-18 -1 20 0
-19 -15 -26 0
-42 -47 41 0
-21 44 29 0
6 -2 45 0
-10 11 45 0
-33 26 -12 0
11 -39 37 0
-41 48 9 0
42 20 -9 0
26 30 -28 0
-3 -29 -27 0
6 19 41 0
10 -9 49 0
-23 48 -37 0
32 21 -8 0
19 15 -48 0
-1 -15 -33 0
-4 -48 -31 0
-43 33 38 0
-50 7 45 0
-30 -45 -1 0
-41 20 7 0
-40 -13 21 0
